p cnf 343 2488
4 0
-1 0
-2 0
-3 0
-5 0
-6 0
-7 0
53 11 0
-53 -11 0
10 0
-8 0
-9 0
-11 0
-12 0
-13 0
-14 0
59 3 17 0
-59 -3 0
-59 -17 0
-3 -17 0
15 16 17 18 19 20 21 0
-15 -16 0
-15 -17 0
-15 -18 0
-15 -19 0
-15 -20 0
-15 -21 0
-16 -17 0
-16 -18 0
-16 -19 0
-16 -20 0
-16 -21 0
-17 -18 0
-17 -19 0
-17 -20 0
-17 -21 0
-18 -19 0
-18 -20 0
-18 -21 0
-19 -20 0
-19 -21 0
-20 -21 0
-15 64 8 0
-15 64 22 0
-15 8 22 0
-16 65 9 0
-16 65 23 0
-16 9 23 0
-17 66 10 0
-17 66 24 0
-17 10 24 0
-18 67 11 0
-18 67 25 0
-18 11 25 0
-19 68 12 0
-19 68 26 0
-19 12 26 0
-20 69 13 0
-20 69 27 0
-20 13 27 0
-21 70 14 0
-21 70 28 0
-21 14 28 0
-15 -64 -8 -22 0
-16 -65 -9 -23 0
-17 -66 -10 -24 0
-18 -67 -11 -25 0
-19 -68 -12 -26 0
-20 -69 -13 -27 0
-21 -70 -14 -28 0
22 23 24 25 26 27 28 0
-22 -23 0
-22 -24 0
-22 -25 0
-22 -26 0
-22 -27 0
-22 -28 0
-23 -24 0
-23 -25 0
-23 -26 0
-23 -27 0
-23 -28 0
-24 -25 0
-24 -26 0
-24 -27 0
-24 -28 0
-25 -26 0
-25 -27 0
-25 -28 0
-26 -27 0
-26 -28 0
-27 -28 0
-22 71 15 0
-22 71 29 0
-22 15 29 0
-23 72 16 0
-23 72 30 0
-23 16 30 0
-24 73 17 0
-24 73 31 0
-24 17 31 0
-25 74 18 0
-25 74 32 0
-25 18 32 0
-26 75 19 0
-26 75 33 0
-26 19 33 0
-27 76 20 0
-27 76 34 0
-27 20 34 0
-28 77 21 0
-28 77 35 0
-28 21 35 0
-22 -71 -15 -29 0
-23 -72 -16 -30 0
-24 -73 -17 -31 0
-25 -74 -18 -32 0
-26 -75 -19 -33 0
-27 -76 -20 -34 0
-28 -77 -21 -35 0
29 30 31 32 33 34 35 0
-29 -30 0
-29 -31 0
-29 -32 0
-29 -33 0
-29 -34 0
-29 -35 0
-30 -31 0
-30 -32 0
-30 -33 0
-30 -34 0
-30 -35 0
-31 -32 0
-31 -33 0
-31 -34 0
-31 -35 0
-32 -33 0
-32 -34 0
-32 -35 0
-33 -34 0
-33 -35 0
-34 -35 0
-29 78 22 0
-29 78 36 0
-29 22 36 0
-30 79 23 0
-30 79 37 0
-30 23 37 0
-31 80 24 0
-31 80 38 0
-31 24 38 0
-32 81 25 0
-32 81 39 0
-32 25 39 0
-33 82 26 0
-33 82 40 0
-33 26 40 0
-34 83 27 0
-34 83 41 0
-34 27 41 0
-35 84 28 0
-35 84 42 0
-35 28 42 0
-29 -78 -22 -36 0
-30 -79 -23 -37 0
-31 -80 -24 -38 0
-32 -81 -25 -39 0
-33 -82 -26 -40 0
-34 -83 -27 -41 0
-35 -84 -28 -42 0
36 37 38 39 40 41 42 0
-36 -37 0
-36 -38 0
-36 -39 0
-36 -40 0
-36 -41 0
-36 -42 0
-37 -38 0
-37 -39 0
-37 -40 0
-37 -41 0
-37 -42 0
-38 -39 0
-38 -40 0
-38 -41 0
-38 -42 0
-39 -40 0
-39 -41 0
-39 -42 0
-40 -41 0
-40 -42 0
-41 -42 0
-36 85 29 0
-36 85 43 0
-36 29 43 0
-37 86 30 0
-37 86 44 0
-37 30 44 0
-38 87 31 0
-38 87 45 0
-38 31 45 0
-39 88 32 0
-39 88 46 0
-39 32 46 0
-40 89 33 0
-40 89 47 0
-40 33 47 0
-41 90 34 0
-41 90 48 0
-41 34 48 0
-42 91 35 0
-42 91 49 0
-42 35 49 0
-36 -85 -29 -43 0
-37 -86 -30 -44 0
-38 -87 -31 -45 0
-39 -88 -32 -46 0
-40 -89 -33 -47 0
-41 -90 -34 -48 0
-42 -91 -35 -49 0
45 0
-43 0
-44 0
-46 0
-47 0
-48 0
-49 0
94 38 0
-94 -38 0
50 51 52 53 54 55 56 0
-50 -51 0
-50 -52 0
-50 -53 0
-50 -54 0
-50 -55 0
-50 -56 0
-51 -52 0
-51 -53 0
-51 -54 0
-51 -55 0
-51 -56 0
-52 -53 0
-52 -54 0
-52 -55 0
-52 -56 0
-53 -54 0
-53 -55 0
-53 -56 0
-54 -55 0
-54 -56 0
-55 -56 0
-50 99 1 0
-50 99 57 0
-50 1 57 0
-51 100 2 0
-51 100 58 0
-51 2 58 0
-52 101 3 0
-52 101 59 0
-52 3 59 0
-53 102 4 0
-53 102 60 0
-53 4 60 0
-54 103 5 0
-54 103 61 0
-54 5 61 0
-55 104 6 0
-55 104 62 0
-55 6 62 0
-56 105 7 0
-56 105 63 0
-56 7 63 0
-50 -99 -1 -57 0
-51 -100 -2 -58 0
-52 -101 -3 -59 0
-53 -102 -4 -60 0
-54 -103 -5 -61 0
-55 -104 -6 -62 0
-56 -105 -7 -63 0
57 58 59 60 61 62 63 0
-57 -58 0
-57 -59 0
-57 -60 0
-57 -61 0
-57 -62 0
-57 -63 0
-58 -59 0
-58 -60 0
-58 -61 0
-58 -62 0
-58 -63 0
-59 -60 0
-59 -61 0
-59 -62 0
-59 -63 0
-60 -61 0
-60 -62 0
-60 -63 0
-61 -62 0
-61 -63 0
-62 -63 0
-57 106 8 64 0
-57 106 8 50 0
-57 106 64 50 0
-57 8 64 50 0
-58 107 9 65 0
-58 107 9 51 0
-58 107 65 51 0
-58 9 65 51 0
-59 108 10 66 0
-59 108 10 52 0
-59 108 66 52 0
-59 10 66 52 0
-60 109 11 67 0
-60 109 11 53 0
-60 109 67 53 0
-60 11 67 53 0
-61 110 12 68 0
-61 110 12 54 0
-61 110 68 54 0
-61 12 68 54 0
-62 111 13 69 0
-62 111 13 55 0
-62 111 69 55 0
-62 13 69 55 0
-63 112 14 70 0
-63 112 14 56 0
-63 112 70 56 0
-63 14 70 56 0
-57 -106 -8 -64 0
-57 -106 -8 -50 0
-57 -106 -64 -50 0
-57 -8 -64 -50 0
-58 -107 -9 -65 0
-58 -107 -9 -51 0
-58 -107 -65 -51 0
-58 -9 -65 -51 0
-59 -108 -10 -66 0
-59 -108 -10 -52 0
-59 -108 -66 -52 0
-59 -10 -66 -52 0
-60 -109 -11 -67 0
-60 -109 -11 -53 0
-60 -109 -67 -53 0
-60 -11 -67 -53 0
-61 -110 -12 -68 0
-61 -110 -12 -54 0
-61 -110 -68 -54 0
-61 -12 -68 -54 0
-62 -111 -13 -69 0
-62 -111 -13 -55 0
-62 -111 -69 -55 0
-62 -13 -69 -55 0
-63 -112 -14 -70 0
-63 -112 -14 -56 0
-63 -112 -70 -56 0
-63 -14 -70 -56 0
64 65 66 67 68 69 70 0
-64 -65 0
-64 -66 0
-64 -67 0
-64 -68 0
-64 -69 0
-64 -70 0
-65 -66 0
-65 -67 0
-65 -68 0
-65 -69 0
-65 -70 0
-66 -67 0
-66 -68 0
-66 -69 0
-66 -70 0
-67 -68 0
-67 -69 0
-67 -70 0
-68 -69 0
-68 -70 0
-69 -70 0
-64 113 15 71 0
-64 113 15 57 0
-64 113 71 57 0
-64 15 71 57 0
-65 114 16 72 0
-65 114 16 58 0
-65 114 72 58 0
-65 16 72 58 0
-66 115 17 73 0
-66 115 17 59 0
-66 115 73 59 0
-66 17 73 59 0
-67 116 18 74 0
-67 116 18 60 0
-67 116 74 60 0
-67 18 74 60 0
-68 117 19 75 0
-68 117 19 61 0
-68 117 75 61 0
-68 19 75 61 0
-69 118 20 76 0
-69 118 20 62 0
-69 118 76 62 0
-69 20 76 62 0
-70 119 21 77 0
-70 119 21 63 0
-70 119 77 63 0
-70 21 77 63 0
-64 -113 -15 -71 0
-64 -113 -15 -57 0
-64 -113 -71 -57 0
-64 -15 -71 -57 0
-65 -114 -16 -72 0
-65 -114 -16 -58 0
-65 -114 -72 -58 0
-65 -16 -72 -58 0
-66 -115 -17 -73 0
-66 -115 -17 -59 0
-66 -115 -73 -59 0
-66 -17 -73 -59 0
-67 -116 -18 -74 0
-67 -116 -18 -60 0
-67 -116 -74 -60 0
-67 -18 -74 -60 0
-68 -117 -19 -75 0
-68 -117 -19 -61 0
-68 -117 -75 -61 0
-68 -19 -75 -61 0
-69 -118 -20 -76 0
-69 -118 -20 -62 0
-69 -118 -76 -62 0
-69 -20 -76 -62 0
-70 -119 -21 -77 0
-70 -119 -21 -63 0
-70 -119 -77 -63 0
-70 -21 -77 -63 0
71 72 73 74 75 76 77 0
-71 -72 0
-71 -73 0
-71 -74 0
-71 -75 0
-71 -76 0
-71 -77 0
-72 -73 0
-72 -74 0
-72 -75 0
-72 -76 0
-72 -77 0
-73 -74 0
-73 -75 0
-73 -76 0
-73 -77 0
-74 -75 0
-74 -76 0
-74 -77 0
-75 -76 0
-75 -77 0
-76 -77 0
-71 120 22 78 0
-71 120 22 64 0
-71 120 78 64 0
-71 22 78 64 0
-72 121 23 79 0
-72 121 23 65 0
-72 121 79 65 0
-72 23 79 65 0
-73 122 24 80 0
-73 122 24 66 0
-73 122 80 66 0
-73 24 80 66 0
-74 123 25 81 0
-74 123 25 67 0
-74 123 81 67 0
-74 25 81 67 0
-75 124 26 82 0
-75 124 26 68 0
-75 124 82 68 0
-75 26 82 68 0
-76 125 27 83 0
-76 125 27 69 0
-76 125 83 69 0
-76 27 83 69 0
-77 126 28 84 0
-77 126 28 70 0
-77 126 84 70 0
-77 28 84 70 0
-71 -120 -22 -78 0
-71 -120 -22 -64 0
-71 -120 -78 -64 0
-71 -22 -78 -64 0
-72 -121 -23 -79 0
-72 -121 -23 -65 0
-72 -121 -79 -65 0
-72 -23 -79 -65 0
-73 -122 -24 -80 0
-73 -122 -24 -66 0
-73 -122 -80 -66 0
-73 -24 -80 -66 0
-74 -123 -25 -81 0
-74 -123 -25 -67 0
-74 -123 -81 -67 0
-74 -25 -81 -67 0
-75 -124 -26 -82 0
-75 -124 -26 -68 0
-75 -124 -82 -68 0
-75 -26 -82 -68 0
-76 -125 -27 -83 0
-76 -125 -27 -69 0
-76 -125 -83 -69 0
-76 -27 -83 -69 0
-77 -126 -28 -84 0
-77 -126 -28 -70 0
-77 -126 -84 -70 0
-77 -28 -84 -70 0
78 79 80 81 82 83 84 0
-78 -79 0
-78 -80 0
-78 -81 0
-78 -82 0
-78 -83 0
-78 -84 0
-79 -80 0
-79 -81 0
-79 -82 0
-79 -83 0
-79 -84 0
-80 -81 0
-80 -82 0
-80 -83 0
-80 -84 0
-81 -82 0
-81 -83 0
-81 -84 0
-82 -83 0
-82 -84 0
-83 -84 0
-78 127 29 85 0
-78 127 29 71 0
-78 127 85 71 0
-78 29 85 71 0
-79 128 30 86 0
-79 128 30 72 0
-79 128 86 72 0
-79 30 86 72 0
-80 129 31 87 0
-80 129 31 73 0
-80 129 87 73 0
-80 31 87 73 0
-81 130 32 88 0
-81 130 32 74 0
-81 130 88 74 0
-81 32 88 74 0
-82 131 33 89 0
-82 131 33 75 0
-82 131 89 75 0
-82 33 89 75 0
-83 132 34 90 0
-83 132 34 76 0
-83 132 90 76 0
-83 34 90 76 0
-84 133 35 91 0
-84 133 35 77 0
-84 133 91 77 0
-84 35 91 77 0
-78 -127 -29 -85 0
-78 -127 -29 -71 0
-78 -127 -85 -71 0
-78 -29 -85 -71 0
-79 -128 -30 -86 0
-79 -128 -30 -72 0
-79 -128 -86 -72 0
-79 -30 -86 -72 0
-80 -129 -31 -87 0
-80 -129 -31 -73 0
-80 -129 -87 -73 0
-80 -31 -87 -73 0
-81 -130 -32 -88 0
-81 -130 -32 -74 0
-81 -130 -88 -74 0
-81 -32 -88 -74 0
-82 -131 -33 -89 0
-82 -131 -33 -75 0
-82 -131 -89 -75 0
-82 -33 -89 -75 0
-83 -132 -34 -90 0
-83 -132 -34 -76 0
-83 -132 -90 -76 0
-83 -34 -90 -76 0
-84 -133 -35 -91 0
-84 -133 -35 -77 0
-84 -133 -91 -77 0
-84 -35 -91 -77 0
85 86 87 88 89 90 91 0
-85 -86 0
-85 -87 0
-85 -88 0
-85 -89 0
-85 -90 0
-85 -91 0
-86 -87 0
-86 -88 0
-86 -89 0
-86 -90 0
-86 -91 0
-87 -88 0
-87 -89 0
-87 -90 0
-87 -91 0
-88 -89 0
-88 -90 0
-88 -91 0
-89 -90 0
-89 -91 0
-90 -91 0
-85 134 36 92 0
-85 134 36 78 0
-85 134 92 78 0
-85 36 92 78 0
-86 135 37 93 0
-86 135 37 79 0
-86 135 93 79 0
-86 37 93 79 0
-87 136 38 94 0
-87 136 38 80 0
-87 136 94 80 0
-87 38 94 80 0
-88 137 39 95 0
-88 137 39 81 0
-88 137 95 81 0
-88 39 95 81 0
-89 138 40 96 0
-89 138 40 82 0
-89 138 96 82 0
-89 40 96 82 0
-90 139 41 97 0
-90 139 41 83 0
-90 139 97 83 0
-90 41 97 83 0
-91 140 42 98 0
-91 140 42 84 0
-91 140 98 84 0
-91 42 98 84 0
-85 -134 -36 -92 0
-85 -134 -36 -78 0
-85 -134 -92 -78 0
-85 -36 -92 -78 0
-86 -135 -37 -93 0
-86 -135 -37 -79 0
-86 -135 -93 -79 0
-86 -37 -93 -79 0
-87 -136 -38 -94 0
-87 -136 -38 -80 0
-87 -136 -94 -80 0
-87 -38 -94 -80 0
-88 -137 -39 -95 0
-88 -137 -39 -81 0
-88 -137 -95 -81 0
-88 -39 -95 -81 0
-89 -138 -40 -96 0
-89 -138 -40 -82 0
-89 -138 -96 -82 0
-89 -40 -96 -82 0
-90 -139 -41 -97 0
-90 -139 -41 -83 0
-90 -139 -97 -83 0
-90 -41 -97 -83 0
-91 -140 -42 -98 0
-91 -140 -42 -84 0
-91 -140 -98 -84 0
-91 -42 -98 -84 0
93 0
-92 0
-94 0
-95 0
-96 0
-97 0
-98 0
142 44 86 0
-142 -44 0
-142 -86 0
-44 -86 0
105 0
-99 0
-100 0
-101 0
-102 0
-103 0
-104 0
154 56 112 0
-154 -56 0
-154 -112 0
-56 -112 0
109 0
-106 0
-107 0
-108 0
-110 0
-111 0
-112 0
158 60 116 102 0
-158 -60 0
-158 -116 0
-158 -102 0
-60 -116 0
-60 -102 0
-116 -102 0
113 114 115 116 117 118 119 0
-113 -114 0
-113 -115 0
-113 -116 0
-113 -117 0
-113 -118 0
-113 -119 0
-114 -115 0
-114 -116 0
-114 -117 0
-114 -118 0
-114 -119 0
-115 -116 0
-115 -117 0
-115 -118 0
-115 -119 0
-116 -117 0
-116 -118 0
-116 -119 0
-117 -118 0
-117 -119 0
-118 -119 0
-113 162 64 120 0
-113 162 64 106 0
-113 162 120 106 0
-113 64 120 106 0
-114 163 65 121 0
-114 163 65 107 0
-114 163 121 107 0
-114 65 121 107 0
-115 164 66 122 0
-115 164 66 108 0
-115 164 122 108 0
-115 66 122 108 0
-116 165 67 123 0
-116 165 67 109 0
-116 165 123 109 0
-116 67 123 109 0
-117 166 68 124 0
-117 166 68 110 0
-117 166 124 110 0
-117 68 124 110 0
-118 167 69 125 0
-118 167 69 111 0
-118 167 125 111 0
-118 69 125 111 0
-119 168 70 126 0
-119 168 70 112 0
-119 168 126 112 0
-119 70 126 112 0
-113 -162 -64 -120 0
-113 -162 -64 -106 0
-113 -162 -120 -106 0
-113 -64 -120 -106 0
-114 -163 -65 -121 0
-114 -163 -65 -107 0
-114 -163 -121 -107 0
-114 -65 -121 -107 0
-115 -164 -66 -122 0
-115 -164 -66 -108 0
-115 -164 -122 -108 0
-115 -66 -122 -108 0
-116 -165 -67 -123 0
-116 -165 -67 -109 0
-116 -165 -123 -109 0
-116 -67 -123 -109 0
-117 -166 -68 -124 0
-117 -166 -68 -110 0
-117 -166 -124 -110 0
-117 -68 -124 -110 0
-118 -167 -69 -125 0
-118 -167 -69 -111 0
-118 -167 -125 -111 0
-118 -69 -125 -111 0
-119 -168 -70 -126 0
-119 -168 -70 -112 0
-119 -168 -126 -112 0
-119 -70 -126 -112 0
120 121 122 123 124 125 126 0
-120 -121 0
-120 -122 0
-120 -123 0
-120 -124 0
-120 -125 0
-120 -126 0
-121 -122 0
-121 -123 0
-121 -124 0
-121 -125 0
-121 -126 0
-122 -123 0
-122 -124 0
-122 -125 0
-122 -126 0
-123 -124 0
-123 -125 0
-123 -126 0
-124 -125 0
-124 -126 0
-125 -126 0
-120 169 71 127 0
-120 169 71 113 0
-120 169 127 113 0
-120 71 127 113 0
-121 170 72 128 0
-121 170 72 114 0
-121 170 128 114 0
-121 72 128 114 0
-122 171 73 129 0
-122 171 73 115 0
-122 171 129 115 0
-122 73 129 115 0
-123 172 74 130 0
-123 172 74 116 0
-123 172 130 116 0
-123 74 130 116 0
-124 173 75 131 0
-124 173 75 117 0
-124 173 131 117 0
-124 75 131 117 0
-125 174 76 132 0
-125 174 76 118 0
-125 174 132 118 0
-125 76 132 118 0
-126 175 77 133 0
-126 175 77 119 0
-126 175 133 119 0
-126 77 133 119 0
-120 -169 -71 -127 0
-120 -169 -71 -113 0
-120 -169 -127 -113 0
-120 -71 -127 -113 0
-121 -170 -72 -128 0
-121 -170 -72 -114 0
-121 -170 -128 -114 0
-121 -72 -128 -114 0
-122 -171 -73 -129 0
-122 -171 -73 -115 0
-122 -171 -129 -115 0
-122 -73 -129 -115 0
-123 -172 -74 -130 0
-123 -172 -74 -116 0
-123 -172 -130 -116 0
-123 -74 -130 -116 0
-124 -173 -75 -131 0
-124 -173 -75 -117 0
-124 -173 -131 -117 0
-124 -75 -131 -117 0
-125 -174 -76 -132 0
-125 -174 -76 -118 0
-125 -174 -132 -118 0
-125 -76 -132 -118 0
-126 -175 -77 -133 0
-126 -175 -77 -119 0
-126 -175 -133 -119 0
-126 -77 -133 -119 0
127 128 129 130 131 132 133 0
-127 -128 0
-127 -129 0
-127 -130 0
-127 -131 0
-127 -132 0
-127 -133 0
-128 -129 0
-128 -130 0
-128 -131 0
-128 -132 0
-128 -133 0
-129 -130 0
-129 -131 0
-129 -132 0
-129 -133 0
-130 -131 0
-130 -132 0
-130 -133 0
-131 -132 0
-131 -133 0
-132 -133 0
-127 176 78 134 0
-127 176 78 120 0
-127 176 134 120 0
-127 78 134 120 0
-128 177 79 135 0
-128 177 79 121 0
-128 177 135 121 0
-128 79 135 121 0
-129 178 80 136 0
-129 178 80 122 0
-129 178 136 122 0
-129 80 136 122 0
-130 179 81 137 0
-130 179 81 123 0
-130 179 137 123 0
-130 81 137 123 0
-131 180 82 138 0
-131 180 82 124 0
-131 180 138 124 0
-131 82 138 124 0
-132 181 83 139 0
-132 181 83 125 0
-132 181 139 125 0
-132 83 139 125 0
-133 182 84 140 0
-133 182 84 126 0
-133 182 140 126 0
-133 84 140 126 0
-127 -176 -78 -134 0
-127 -176 -78 -120 0
-127 -176 -134 -120 0
-127 -78 -134 -120 0
-128 -177 -79 -135 0
-128 -177 -79 -121 0
-128 -177 -135 -121 0
-128 -79 -135 -121 0
-129 -178 -80 -136 0
-129 -178 -80 -122 0
-129 -178 -136 -122 0
-129 -80 -136 -122 0
-130 -179 -81 -137 0
-130 -179 -81 -123 0
-130 -179 -137 -123 0
-130 -81 -137 -123 0
-131 -180 -82 -138 0
-131 -180 -82 -124 0
-131 -180 -138 -124 0
-131 -82 -138 -124 0
-132 -181 -83 -139 0
-132 -181 -83 -125 0
-132 -181 -139 -125 0
-132 -83 -139 -125 0
-133 -182 -84 -140 0
-133 -182 -84 -126 0
-133 -182 -140 -126 0
-133 -84 -140 -126 0
134 135 136 137 138 139 140 0
-134 -135 0
-134 -136 0
-134 -137 0
-134 -138 0
-134 -139 0
-134 -140 0
-135 -136 0
-135 -137 0
-135 -138 0
-135 -139 0
-135 -140 0
-136 -137 0
-136 -138 0
-136 -139 0
-136 -140 0
-137 -138 0
-137 -139 0
-137 -140 0
-138 -139 0
-138 -140 0
-139 -140 0
-134 183 85 141 0
-134 183 85 127 0
-134 183 141 127 0
-134 85 141 127 0
-135 184 86 142 0
-135 184 86 128 0
-135 184 142 128 0
-135 86 142 128 0
-136 185 87 143 0
-136 185 87 129 0
-136 185 143 129 0
-136 87 143 129 0
-137 186 88 144 0
-137 186 88 130 0
-137 186 144 130 0
-137 88 144 130 0
-138 187 89 145 0
-138 187 89 131 0
-138 187 145 131 0
-138 89 145 131 0
-139 188 90 146 0
-139 188 90 132 0
-139 188 146 132 0
-139 90 146 132 0
-140 189 91 147 0
-140 189 91 133 0
-140 189 147 133 0
-140 91 147 133 0
-134 -183 -85 -141 0
-134 -183 -85 -127 0
-134 -183 -141 -127 0
-134 -85 -141 -127 0
-135 -184 -86 -142 0
-135 -184 -86 -128 0
-135 -184 -142 -128 0
-135 -86 -142 -128 0
-136 -185 -87 -143 0
-136 -185 -87 -129 0
-136 -185 -143 -129 0
-136 -87 -143 -129 0
-137 -186 -88 -144 0
-137 -186 -88 -130 0
-137 -186 -144 -130 0
-137 -88 -144 -130 0
-138 -187 -89 -145 0
-138 -187 -89 -131 0
-138 -187 -145 -131 0
-138 -89 -145 -131 0
-139 -188 -90 -146 0
-139 -188 -90 -132 0
-139 -188 -146 -132 0
-139 -90 -146 -132 0
-140 -189 -91 -147 0
-140 -189 -91 -133 0
-140 -189 -147 -133 0
-140 -91 -147 -133 0
145 0
-141 0
-142 0
-143 0
-144 0
-146 0
-147 0
194 96 138 0
-194 -96 0
-194 -138 0
-96 -138 0
148 149 150 151 152 153 154 0
-148 -149 0
-148 -150 0
-148 -151 0
-148 -152 0
-148 -153 0
-148 -154 0
-149 -150 0
-149 -151 0
-149 -152 0
-149 -153 0
-149 -154 0
-150 -151 0
-150 -152 0
-150 -153 0
-150 -154 0
-151 -152 0
-151 -153 0
-151 -154 0
-152 -153 0
-152 -154 0
-153 -154 0
-148 197 99 0
-148 197 155 0
-148 99 155 0
-149 198 100 0
-149 198 156 0
-149 100 156 0
-150 199 101 0
-150 199 157 0
-150 101 157 0
-151 200 102 0
-151 200 158 0
-151 102 158 0
-152 201 103 0
-152 201 159 0
-152 103 159 0
-153 202 104 0
-153 202 160 0
-153 104 160 0
-154 203 105 0
-154 203 161 0
-154 105 161 0
-148 -197 -99 -155 0
-149 -198 -100 -156 0
-150 -199 -101 -157 0
-151 -200 -102 -158 0
-152 -201 -103 -159 0
-153 -202 -104 -160 0
-154 -203 -105 -161 0
160 0
-155 0
-156 0
-157 0
-158 0
-159 0
-161 0
209 111 167 153 0
-209 -111 0
-209 -167 0
-209 -153 0
-111 -167 0
-111 -153 0
-167 -153 0
162 163 164 165 166 167 168 0
-162 -163 0
-162 -164 0
-162 -165 0
-162 -166 0
-162 -167 0
-162 -168 0
-163 -164 0
-163 -165 0
-163 -166 0
-163 -167 0
-163 -168 0
-164 -165 0
-164 -166 0
-164 -167 0
-164 -168 0
-165 -166 0
-165 -167 0
-165 -168 0
-166 -167 0
-166 -168 0
-167 -168 0
-162 211 113 169 0
-162 211 113 155 0
-162 211 169 155 0
-162 113 169 155 0
-163 212 114 170 0
-163 212 114 156 0
-163 212 170 156 0
-163 114 170 156 0
-164 213 115 171 0
-164 213 115 157 0
-164 213 171 157 0
-164 115 171 157 0
-165 214 116 172 0
-165 214 116 158 0
-165 214 172 158 0
-165 116 172 158 0
-166 215 117 173 0
-166 215 117 159 0
-166 215 173 159 0
-166 117 173 159 0
-167 216 118 174 0
-167 216 118 160 0
-167 216 174 160 0
-167 118 174 160 0
-168 217 119 175 0
-168 217 119 161 0
-168 217 175 161 0
-168 119 175 161 0
-162 -211 -113 -169 0
-162 -211 -113 -155 0
-162 -211 -169 -155 0
-162 -113 -169 -155 0
-163 -212 -114 -170 0
-163 -212 -114 -156 0
-163 -212 -170 -156 0
-163 -114 -170 -156 0
-164 -213 -115 -171 0
-164 -213 -115 -157 0
-164 -213 -171 -157 0
-164 -115 -171 -157 0
-165 -214 -116 -172 0
-165 -214 -116 -158 0
-165 -214 -172 -158 0
-165 -116 -172 -158 0
-166 -215 -117 -173 0
-166 -215 -117 -159 0
-166 -215 -173 -159 0
-166 -117 -173 -159 0
-167 -216 -118 -174 0
-167 -216 -118 -160 0
-167 -216 -174 -160 0
-167 -118 -174 -160 0
-168 -217 -119 -175 0
-168 -217 -119 -161 0
-168 -217 -175 -161 0
-168 -119 -175 -161 0
173 0
-169 0
-170 0
-171 0
-172 0
-174 0
-175 0
222 124 180 166 0
-222 -124 0
-222 -180 0
-222 -166 0
-124 -180 0
-124 -166 0
-180 -166 0
176 177 178 179 180 181 182 0
-176 -177 0
-176 -178 0
-176 -179 0
-176 -180 0
-176 -181 0
-176 -182 0
-177 -178 0
-177 -179 0
-177 -180 0
-177 -181 0
-177 -182 0
-178 -179 0
-178 -180 0
-178 -181 0
-178 -182 0
-179 -180 0
-179 -181 0
-179 -182 0
-180 -181 0
-180 -182 0
-181 -182 0
-176 225 127 183 0
-176 225 127 169 0
-176 225 183 169 0
-176 127 183 169 0
-177 226 128 184 0
-177 226 128 170 0
-177 226 184 170 0
-177 128 184 170 0
-178 227 129 185 0
-178 227 129 171 0
-178 227 185 171 0
-178 129 185 171 0
-179 228 130 186 0
-179 228 130 172 0
-179 228 186 172 0
-179 130 186 172 0
-180 229 131 187 0
-180 229 131 173 0
-180 229 187 173 0
-180 131 187 173 0
-181 230 132 188 0
-181 230 132 174 0
-181 230 188 174 0
-181 132 188 174 0
-182 231 133 189 0
-182 231 133 175 0
-182 231 189 175 0
-182 133 189 175 0
-176 -225 -127 -183 0
-176 -225 -127 -169 0
-176 -225 -183 -169 0
-176 -127 -183 -169 0
-177 -226 -128 -184 0
-177 -226 -128 -170 0
-177 -226 -184 -170 0
-177 -128 -184 -170 0
-178 -227 -129 -185 0
-178 -227 -129 -171 0
-178 -227 -185 -171 0
-178 -129 -185 -171 0
-179 -228 -130 -186 0
-179 -228 -130 -172 0
-179 -228 -186 -172 0
-179 -130 -186 -172 0
-180 -229 -131 -187 0
-180 -229 -131 -173 0
-180 -229 -187 -173 0
-180 -131 -187 -173 0
-181 -230 -132 -188 0
-181 -230 -132 -174 0
-181 -230 -188 -174 0
-181 -132 -188 -174 0
-182 -231 -133 -189 0
-182 -231 -133 -175 0
-182 -231 -189 -175 0
-182 -133 -189 -175 0
183 184 185 186 187 188 189 0
-183 -184 0
-183 -185 0
-183 -186 0
-183 -187 0
-183 -188 0
-183 -189 0
-184 -185 0
-184 -186 0
-184 -187 0
-184 -188 0
-184 -189 0
-185 -186 0
-185 -187 0
-185 -188 0
-185 -189 0
-186 -187 0
-186 -188 0
-186 -189 0
-187 -188 0
-187 -189 0
-188 -189 0
-183 232 134 190 0
-183 232 134 176 0
-183 232 190 176 0
-183 134 190 176 0
-184 233 135 191 0
-184 233 135 177 0
-184 233 191 177 0
-184 135 191 177 0
-185 234 136 192 0
-185 234 136 178 0
-185 234 192 178 0
-185 136 192 178 0
-186 235 137 193 0
-186 235 137 179 0
-186 235 193 179 0
-186 137 193 179 0
-187 236 138 194 0
-187 236 138 180 0
-187 236 194 180 0
-187 138 194 180 0
-188 237 139 195 0
-188 237 139 181 0
-188 237 195 181 0
-188 139 195 181 0
-189 238 140 196 0
-189 238 140 182 0
-189 238 196 182 0
-189 140 196 182 0
-183 -232 -134 -190 0
-183 -232 -134 -176 0
-183 -232 -190 -176 0
-183 -134 -190 -176 0
-184 -233 -135 -191 0
-184 -233 -135 -177 0
-184 -233 -191 -177 0
-184 -135 -191 -177 0
-185 -234 -136 -192 0
-185 -234 -136 -178 0
-185 -234 -192 -178 0
-185 -136 -192 -178 0
-186 -235 -137 -193 0
-186 -235 -137 -179 0
-186 -235 -193 -179 0
-186 -137 -193 -179 0
-187 -236 -138 -194 0
-187 -236 -138 -180 0
-187 -236 -194 -180 0
-187 -138 -194 -180 0
-188 -237 -139 -195 0
-188 -237 -139 -181 0
-188 -237 -195 -181 0
-188 -139 -195 -181 0
-189 -238 -140 -196 0
-189 -238 -140 -182 0
-189 -238 -196 -182 0
-189 -140 -196 -182 0
191 0
-190 0
-192 0
-193 0
-194 0
-195 0
-196 0
240 142 184 0
-240 -142 0
-240 -184 0
-142 -184 0
197 198 199 200 201 202 203 0
-197 -198 0
-197 -199 0
-197 -200 0
-197 -201 0
-197 -202 0
-197 -203 0
-198 -199 0
-198 -200 0
-198 -201 0
-198 -202 0
-198 -203 0
-199 -200 0
-199 -201 0
-199 -202 0
-199 -203 0
-200 -201 0
-200 -202 0
-200 -203 0
-201 -202 0
-201 -203 0
-202 -203 0
-197 246 148 0
-197 246 204 0
-197 148 204 0
-198 247 149 0
-198 247 205 0
-198 149 205 0
-199 248 150 0
-199 248 206 0
-199 150 206 0
-200 249 151 0
-200 249 207 0
-200 151 207 0
-201 250 152 0
-201 250 208 0
-201 152 208 0
-202 251 153 0
-202 251 209 0
-202 153 209 0
-203 252 154 0
-203 252 210 0
-203 154 210 0
-197 -246 -148 -204 0
-198 -247 -149 -205 0
-199 -248 -150 -206 0
-200 -249 -151 -207 0
-201 -250 -152 -208 0
-202 -251 -153 -209 0
-203 -252 -154 -210 0
204 205 206 207 208 209 210 0
-204 -205 0
-204 -206 0
-204 -207 0
-204 -208 0
-204 -209 0
-204 -210 0
-205 -206 0
-205 -207 0
-205 -208 0
-205 -209 0
-205 -210 0
-206 -207 0
-206 -208 0
-206 -209 0
-206 -210 0
-207 -208 0
-207 -209 0
-207 -210 0
-208 -209 0
-208 -210 0
-209 -210 0
-204 253 155 211 0
-204 253 155 197 0
-204 253 211 197 0
-204 155 211 197 0
-205 254 156 212 0
-205 254 156 198 0
-205 254 212 198 0
-205 156 212 198 0
-206 255 157 213 0
-206 255 157 199 0
-206 255 213 199 0
-206 157 213 199 0
-207 256 158 214 0
-207 256 158 200 0
-207 256 214 200 0
-207 158 214 200 0
-208 257 159 215 0
-208 257 159 201 0
-208 257 215 201 0
-208 159 215 201 0
-209 258 160 216 0
-209 258 160 202 0
-209 258 216 202 0
-209 160 216 202 0
-210 259 161 217 0
-210 259 161 203 0
-210 259 217 203 0
-210 161 217 203 0
-204 -253 -155 -211 0
-204 -253 -155 -197 0
-204 -253 -211 -197 0
-204 -155 -211 -197 0
-205 -254 -156 -212 0
-205 -254 -156 -198 0
-205 -254 -212 -198 0
-205 -156 -212 -198 0
-206 -255 -157 -213 0
-206 -255 -157 -199 0
-206 -255 -213 -199 0
-206 -157 -213 -199 0
-207 -256 -158 -214 0
-207 -256 -158 -200 0
-207 -256 -214 -200 0
-207 -158 -214 -200 0
-208 -257 -159 -215 0
-208 -257 -159 -201 0
-208 -257 -215 -201 0
-208 -159 -215 -201 0
-209 -258 -160 -216 0
-209 -258 -160 -202 0
-209 -258 -216 -202 0
-209 -160 -216 -202 0
-210 -259 -161 -217 0
-210 -259 -161 -203 0
-210 -259 -217 -203 0
-210 -161 -217 -203 0
211 212 213 214 215 216 217 0
-211 -212 0
-211 -213 0
-211 -214 0
-211 -215 0
-211 -216 0
-211 -217 0
-212 -213 0
-212 -214 0
-212 -215 0
-212 -216 0
-212 -217 0
-213 -214 0
-213 -215 0
-213 -216 0
-213 -217 0
-214 -215 0
-214 -216 0
-214 -217 0
-215 -216 0
-215 -217 0
-216 -217 0
-211 260 162 218 0
-211 260 162 204 0
-211 260 218 204 0
-211 162 218 204 0
-212 261 163 219 0
-212 261 163 205 0
-212 261 219 205 0
-212 163 219 205 0
-213 262 164 220 0
-213 262 164 206 0
-213 262 220 206 0
-213 164 220 206 0
-214 263 165 221 0
-214 263 165 207 0
-214 263 221 207 0
-214 165 221 207 0
-215 264 166 222 0
-215 264 166 208 0
-215 264 222 208 0
-215 166 222 208 0
-216 265 167 223 0
-216 265 167 209 0
-216 265 223 209 0
-216 167 223 209 0
-217 266 168 224 0
-217 266 168 210 0
-217 266 224 210 0
-217 168 224 210 0
-211 -260 -162 -218 0
-211 -260 -162 -204 0
-211 -260 -218 -204 0
-211 -162 -218 -204 0
-212 -261 -163 -219 0
-212 -261 -163 -205 0
-212 -261 -219 -205 0
-212 -163 -219 -205 0
-213 -262 -164 -220 0
-213 -262 -164 -206 0
-213 -262 -220 -206 0
-213 -164 -220 -206 0
-214 -263 -165 -221 0
-214 -263 -165 -207 0
-214 -263 -221 -207 0
-214 -165 -221 -207 0
-215 -264 -166 -222 0
-215 -264 -166 -208 0
-215 -264 -222 -208 0
-215 -166 -222 -208 0
-216 -265 -167 -223 0
-216 -265 -167 -209 0
-216 -265 -223 -209 0
-216 -167 -223 -209 0
-217 -266 -168 -224 0
-217 -266 -168 -210 0
-217 -266 -224 -210 0
-217 -168 -224 -210 0
218 219 220 221 222 223 224 0
-218 -219 0
-218 -220 0
-218 -221 0
-218 -222 0
-218 -223 0
-218 -224 0
-219 -220 0
-219 -221 0
-219 -222 0
-219 -223 0
-219 -224 0
-220 -221 0
-220 -222 0
-220 -223 0
-220 -224 0
-221 -222 0
-221 -223 0
-221 -224 0
-222 -223 0
-222 -224 0
-223 -224 0
-218 267 169 225 0
-218 267 169 211 0
-218 267 225 211 0
-218 169 225 211 0
-219 268 170 226 0
-219 268 170 212 0
-219 268 226 212 0
-219 170 226 212 0
-220 269 171 227 0
-220 269 171 213 0
-220 269 227 213 0
-220 171 227 213 0
-221 270 172 228 0
-221 270 172 214 0
-221 270 228 214 0
-221 172 228 214 0
-222 271 173 229 0
-222 271 173 215 0
-222 271 229 215 0
-222 173 229 215 0
-223 272 174 230 0
-223 272 174 216 0
-223 272 230 216 0
-223 174 230 216 0
-224 273 175 231 0
-224 273 175 217 0
-224 273 231 217 0
-224 175 231 217 0
-218 -267 -169 -225 0
-218 -267 -169 -211 0
-218 -267 -225 -211 0
-218 -169 -225 -211 0
-219 -268 -170 -226 0
-219 -268 -170 -212 0
-219 -268 -226 -212 0
-219 -170 -226 -212 0
-220 -269 -171 -227 0
-220 -269 -171 -213 0
-220 -269 -227 -213 0
-220 -171 -227 -213 0
-221 -270 -172 -228 0
-221 -270 -172 -214 0
-221 -270 -228 -214 0
-221 -172 -228 -214 0
-222 -271 -173 -229 0
-222 -271 -173 -215 0
-222 -271 -229 -215 0
-222 -173 -229 -215 0
-223 -272 -174 -230 0
-223 -272 -174 -216 0
-223 -272 -230 -216 0
-223 -174 -230 -216 0
-224 -273 -175 -231 0
-224 -273 -175 -217 0
-224 -273 -231 -217 0
-224 -175 -231 -217 0
225 226 227 228 229 230 231 0
-225 -226 0
-225 -227 0
-225 -228 0
-225 -229 0
-225 -230 0
-225 -231 0
-226 -227 0
-226 -228 0
-226 -229 0
-226 -230 0
-226 -231 0
-227 -228 0
-227 -229 0
-227 -230 0
-227 -231 0
-228 -229 0
-228 -230 0
-228 -231 0
-229 -230 0
-229 -231 0
-230 -231 0
-225 274 176 232 0
-225 274 176 218 0
-225 274 232 218 0
-225 176 232 218 0
-226 275 177 233 0
-226 275 177 219 0
-226 275 233 219 0
-226 177 233 219 0
-227 276 178 234 0
-227 276 178 220 0
-227 276 234 220 0
-227 178 234 220 0
-228 277 179 235 0
-228 277 179 221 0
-228 277 235 221 0
-228 179 235 221 0
-229 278 180 236 0
-229 278 180 222 0
-229 278 236 222 0
-229 180 236 222 0
-230 279 181 237 0
-230 279 181 223 0
-230 279 237 223 0
-230 181 237 223 0
-231 280 182 238 0
-231 280 182 224 0
-231 280 238 224 0
-231 182 238 224 0
-225 -274 -176 -232 0
-225 -274 -176 -218 0
-225 -274 -232 -218 0
-225 -176 -232 -218 0
-226 -275 -177 -233 0
-226 -275 -177 -219 0
-226 -275 -233 -219 0
-226 -177 -233 -219 0
-227 -276 -178 -234 0
-227 -276 -178 -220 0
-227 -276 -234 -220 0
-227 -178 -234 -220 0
-228 -277 -179 -235 0
-228 -277 -179 -221 0
-228 -277 -235 -221 0
-228 -179 -235 -221 0
-229 -278 -180 -236 0
-229 -278 -180 -222 0
-229 -278 -236 -222 0
-229 -180 -236 -222 0
-230 -279 -181 -237 0
-230 -279 -181 -223 0
-230 -279 -237 -223 0
-230 -181 -237 -223 0
-231 -280 -182 -238 0
-231 -280 -182 -224 0
-231 -280 -238 -224 0
-231 -182 -238 -224 0
232 233 234 235 236 237 238 0
-232 -233 0
-232 -234 0
-232 -235 0
-232 -236 0
-232 -237 0
-232 -238 0
-233 -234 0
-233 -235 0
-233 -236 0
-233 -237 0
-233 -238 0
-234 -235 0
-234 -236 0
-234 -237 0
-234 -238 0
-235 -236 0
-235 -237 0
-235 -238 0
-236 -237 0
-236 -238 0
-237 -238 0
-232 281 183 239 0
-232 281 183 225 0
-232 281 239 225 0
-232 183 239 225 0
-233 282 184 240 0
-233 282 184 226 0
-233 282 240 226 0
-233 184 240 226 0
-234 283 185 241 0
-234 283 185 227 0
-234 283 241 227 0
-234 185 241 227 0
-235 284 186 242 0
-235 284 186 228 0
-235 284 242 228 0
-235 186 242 228 0
-236 285 187 243 0
-236 285 187 229 0
-236 285 243 229 0
-236 187 243 229 0
-237 286 188 244 0
-237 286 188 230 0
-237 286 244 230 0
-237 188 244 230 0
-238 287 189 245 0
-238 287 189 231 0
-238 287 245 231 0
-238 189 245 231 0
-232 -281 -183 -239 0
-232 -281 -183 -225 0
-232 -281 -239 -225 0
-232 -183 -239 -225 0
-233 -282 -184 -240 0
-233 -282 -184 -226 0
-233 -282 -240 -226 0
-233 -184 -240 -226 0
-234 -283 -185 -241 0
-234 -283 -185 -227 0
-234 -283 -241 -227 0
-234 -185 -241 -227 0
-235 -284 -186 -242 0
-235 -284 -186 -228 0
-235 -284 -242 -228 0
-235 -186 -242 -228 0
-236 -285 -187 -243 0
-236 -285 -187 -229 0
-236 -285 -243 -229 0
-236 -187 -243 -229 0
-237 -286 -188 -244 0
-237 -286 -188 -230 0
-237 -286 -244 -230 0
-237 -188 -244 -230 0
-238 -287 -189 -245 0
-238 -287 -189 -231 0
-238 -287 -245 -231 0
-238 -189 -245 -231 0
245 0
-239 0
-240 0
-241 0
-242 0
-243 0
-244 0
294 196 238 0
-294 -196 0
-294 -238 0
-196 -238 0
246 247 248 249 250 251 252 0
-246 -247 0
-246 -248 0
-246 -249 0
-246 -250 0
-246 -251 0
-246 -252 0
-247 -248 0
-247 -249 0
-247 -250 0
-247 -251 0
-247 -252 0
-248 -249 0
-248 -250 0
-248 -251 0
-248 -252 0
-249 -250 0
-249 -251 0
-249 -252 0
-250 -251 0
-250 -252 0
-251 -252 0
-246 295 197 0
-246 295 253 0
-246 197 253 0
-247 296 198 0
-247 296 254 0
-247 198 254 0
-248 297 199 0
-248 297 255 0
-248 199 255 0
-249 298 200 0
-249 298 256 0
-249 200 256 0
-250 299 201 0
-250 299 257 0
-250 201 257 0
-251 300 202 0
-251 300 258 0
-251 202 258 0
-252 301 203 0
-252 301 259 0
-252 203 259 0
-246 -295 -197 -253 0
-247 -296 -198 -254 0
-248 -297 -199 -255 0
-249 -298 -200 -256 0
-250 -299 -201 -257 0
-251 -300 -202 -258 0
-252 -301 -203 -259 0
253 254 255 256 257 258 259 0
-253 -254 0
-253 -255 0
-253 -256 0
-253 -257 0
-253 -258 0
-253 -259 0
-254 -255 0
-254 -256 0
-254 -257 0
-254 -258 0
-254 -259 0
-255 -256 0
-255 -257 0
-255 -258 0
-255 -259 0
-256 -257 0
-256 -258 0
-256 -259 0
-257 -258 0
-257 -259 0
-258 -259 0
-253 302 204 260 0
-253 302 204 246 0
-253 302 260 246 0
-253 204 260 246 0
-254 303 205 261 0
-254 303 205 247 0
-254 303 261 247 0
-254 205 261 247 0
-255 304 206 262 0
-255 304 206 248 0
-255 304 262 248 0
-255 206 262 248 0
-256 305 207 263 0
-256 305 207 249 0
-256 305 263 249 0
-256 207 263 249 0
-257 306 208 264 0
-257 306 208 250 0
-257 306 264 250 0
-257 208 264 250 0
-258 307 209 265 0
-258 307 209 251 0
-258 307 265 251 0
-258 209 265 251 0
-259 308 210 266 0
-259 308 210 252 0
-259 308 266 252 0
-259 210 266 252 0
-253 -302 -204 -260 0
-253 -302 -204 -246 0
-253 -302 -260 -246 0
-253 -204 -260 -246 0
-254 -303 -205 -261 0
-254 -303 -205 -247 0
-254 -303 -261 -247 0
-254 -205 -261 -247 0
-255 -304 -206 -262 0
-255 -304 -206 -248 0
-255 -304 -262 -248 0
-255 -206 -262 -248 0
-256 -305 -207 -263 0
-256 -305 -207 -249 0
-256 -305 -263 -249 0
-256 -207 -263 -249 0
-257 -306 -208 -264 0
-257 -306 -208 -250 0
-257 -306 -264 -250 0
-257 -208 -264 -250 0
-258 -307 -209 -265 0
-258 -307 -209 -251 0
-258 -307 -265 -251 0
-258 -209 -265 -251 0
-259 -308 -210 -266 0
-259 -308 -210 -252 0
-259 -308 -266 -252 0
-259 -210 -266 -252 0
260 261 262 263 264 265 266 0
-260 -261 0
-260 -262 0
-260 -263 0
-260 -264 0
-260 -265 0
-260 -266 0
-261 -262 0
-261 -263 0
-261 -264 0
-261 -265 0
-261 -266 0
-262 -263 0
-262 -264 0
-262 -265 0
-262 -266 0
-263 -264 0
-263 -265 0
-263 -266 0
-264 -265 0
-264 -266 0
-265 -266 0
-260 309 211 267 0
-260 309 211 253 0
-260 309 267 253 0
-260 211 267 253 0
-261 310 212 268 0
-261 310 212 254 0
-261 310 268 254 0
-261 212 268 254 0
-262 311 213 269 0
-262 311 213 255 0
-262 311 269 255 0
-262 213 269 255 0
-263 312 214 270 0
-263 312 214 256 0
-263 312 270 256 0
-263 214 270 256 0
-264 313 215 271 0
-264 313 215 257 0
-264 313 271 257 0
-264 215 271 257 0
-265 314 216 272 0
-265 314 216 258 0
-265 314 272 258 0
-265 216 272 258 0
-266 315 217 273 0
-266 315 217 259 0
-266 315 273 259 0
-266 217 273 259 0
-260 -309 -211 -267 0
-260 -309 -211 -253 0
-260 -309 -267 -253 0
-260 -211 -267 -253 0
-261 -310 -212 -268 0
-261 -310 -212 -254 0
-261 -310 -268 -254 0
-261 -212 -268 -254 0
-262 -311 -213 -269 0
-262 -311 -213 -255 0
-262 -311 -269 -255 0
-262 -213 -269 -255 0
-263 -312 -214 -270 0
-263 -312 -214 -256 0
-263 -312 -270 -256 0
-263 -214 -270 -256 0
-264 -313 -215 -271 0
-264 -313 -215 -257 0
-264 -313 -271 -257 0
-264 -215 -271 -257 0
-265 -314 -216 -272 0
-265 -314 -216 -258 0
-265 -314 -272 -258 0
-265 -216 -272 -258 0
-266 -315 -217 -273 0
-266 -315 -217 -259 0
-266 -315 -273 -259 0
-266 -217 -273 -259 0
272 0
-267 0
-268 0
-269 0
-270 0
-271 0
-273 0
321 223 279 265 0
-321 -223 0
-321 -279 0
-321 -265 0
-223 -279 0
-223 -265 0
-279 -265 0
274 275 276 277 278 279 280 0
-274 -275 0
-274 -276 0
-274 -277 0
-274 -278 0
-274 -279 0
-274 -280 0
-275 -276 0
-275 -277 0
-275 -278 0
-275 -279 0
-275 -280 0
-276 -277 0
-276 -278 0
-276 -279 0
-276 -280 0
-277 -278 0
-277 -279 0
-277 -280 0
-278 -279 0
-278 -280 0
-279 -280 0
-274 323 225 281 0
-274 323 225 267 0
-274 323 281 267 0
-274 225 281 267 0
-275 324 226 282 0
-275 324 226 268 0
-275 324 282 268 0
-275 226 282 268 0
-276 325 227 283 0
-276 325 227 269 0
-276 325 283 269 0
-276 227 283 269 0
-277 326 228 284 0
-277 326 228 270 0
-277 326 284 270 0
-277 228 284 270 0
-278 327 229 285 0
-278 327 229 271 0
-278 327 285 271 0
-278 229 285 271 0
-279 328 230 286 0
-279 328 230 272 0
-279 328 286 272 0
-279 230 286 272 0
-280 329 231 287 0
-280 329 231 273 0
-280 329 287 273 0
-280 231 287 273 0
-274 -323 -225 -281 0
-274 -323 -225 -267 0
-274 -323 -281 -267 0
-274 -225 -281 -267 0
-275 -324 -226 -282 0
-275 -324 -226 -268 0
-275 -324 -282 -268 0
-275 -226 -282 -268 0
-276 -325 -227 -283 0
-276 -325 -227 -269 0
-276 -325 -283 -269 0
-276 -227 -283 -269 0
-277 -326 -228 -284 0
-277 -326 -228 -270 0
-277 -326 -284 -270 0
-277 -228 -284 -270 0
-278 -327 -229 -285 0
-278 -327 -229 -271 0
-278 -327 -285 -271 0
-278 -229 -285 -271 0
-279 -328 -230 -286 0
-279 -328 -230 -272 0
-279 -328 -286 -272 0
-279 -230 -286 -272 0
-280 -329 -231 -287 0
-280 -329 -231 -273 0
-280 -329 -287 -273 0
-280 -231 -287 -273 0
281 282 283 284 285 286 287 0
-281 -282 0
-281 -283 0
-281 -284 0
-281 -285 0
-281 -286 0
-281 -287 0
-282 -283 0
-282 -284 0
-282 -285 0
-282 -286 0
-282 -287 0
-283 -284 0
-283 -285 0
-283 -286 0
-283 -287 0
-284 -285 0
-284 -286 0
-284 -287 0
-285 -286 0
-285 -287 0
-286 -287 0
-281 330 232 288 0
-281 330 232 274 0
-281 330 288 274 0
-281 232 288 274 0
-282 331 233 289 0
-282 331 233 275 0
-282 331 289 275 0
-282 233 289 275 0
-283 332 234 290 0
-283 332 234 276 0
-283 332 290 276 0
-283 234 290 276 0
-284 333 235 291 0
-284 333 235 277 0
-284 333 291 277 0
-284 235 291 277 0
-285 334 236 292 0
-285 334 236 278 0
-285 334 292 278 0
-285 236 292 278 0
-286 335 237 293 0
-286 335 237 279 0
-286 335 293 279 0
-286 237 293 279 0
-287 336 238 294 0
-287 336 238 280 0
-287 336 294 280 0
-287 238 294 280 0
-281 -330 -232 -288 0
-281 -330 -232 -274 0
-281 -330 -288 -274 0
-281 -232 -288 -274 0
-282 -331 -233 -289 0
-282 -331 -233 -275 0
-282 -331 -289 -275 0
-282 -233 -289 -275 0
-283 -332 -234 -290 0
-283 -332 -234 -276 0
-283 -332 -290 -276 0
-283 -234 -290 -276 0
-284 -333 -235 -291 0
-284 -333 -235 -277 0
-284 -333 -291 -277 0
-284 -235 -291 -277 0
-285 -334 -236 -292 0
-285 -334 -236 -278 0
-285 -334 -292 -278 0
-285 -236 -292 -278 0
-286 -335 -237 -293 0
-286 -335 -237 -279 0
-286 -335 -293 -279 0
-286 -237 -293 -279 0
-287 -336 -238 -294 0
-287 -336 -238 -280 0
-287 -336 -294 -280 0
-287 -238 -294 -280 0
288 0
-289 0
-290 0
-291 0
-292 0
-293 0
-294 0
337 239 281 0
-337 -239 0
-337 -281 0
-239 -281 0
295 296 297 298 299 300 301 0
-295 -296 0
-295 -297 0
-295 -298 0
-295 -299 0
-295 -300 0
-295 -301 0
-296 -297 0
-296 -298 0
-296 -299 0
-296 -300 0
-296 -301 0
-297 -298 0
-297 -299 0
-297 -300 0
-297 -301 0
-298 -299 0
-298 -300 0
-298 -301 0
-299 -300 0
-299 -301 0
-300 -301 0
-295 246 0
-295 302 0
-296 247 0
-296 303 0
-297 248 0
-297 304 0
-298 249 0
-298 305 0
-299 250 0
-299 306 0
-300 251 0
-300 307 0
-301 252 0
-301 308 0
302 303 304 305 306 307 308 0
-302 -303 0
-302 -304 0
-302 -305 0
-302 -306 0
-302 -307 0
-302 -308 0
-303 -304 0
-303 -305 0
-303 -306 0
-303 -307 0
-303 -308 0
-304 -305 0
-304 -306 0
-304 -307 0
-304 -308 0
-305 -306 0
-305 -307 0
-305 -308 0
-306 -307 0
-306 -308 0
-307 -308 0
-302 295 253 0
-302 253 309 0
-302 295 309 0
-303 296 254 0
-303 254 310 0
-303 296 310 0
-304 297 255 0
-304 255 311 0
-304 297 311 0
-305 298 256 0
-305 256 312 0
-305 298 312 0
-306 299 257 0
-306 257 313 0
-306 299 313 0
-307 300 258 0
-307 258 314 0
-307 300 314 0
-308 301 259 0
-308 259 315 0
-308 301 315 0
-302 -253 -295 -309 0
-303 -254 -296 -310 0
-304 -255 -297 -311 0
-305 -256 -298 -312 0
-306 -257 -299 -313 0
-307 -258 -300 -314 0
-308 -259 -301 -315 0
309 310 311 312 313 314 315 0
-309 -310 0
-309 -311 0
-309 -312 0
-309 -313 0
-309 -314 0
-309 -315 0
-310 -311 0
-310 -312 0
-310 -313 0
-310 -314 0
-310 -315 0
-311 -312 0
-311 -313 0
-311 -314 0
-311 -315 0
-312 -313 0
-312 -314 0
-312 -315 0
-313 -314 0
-313 -315 0
-314 -315 0
-309 302 260 0
-309 260 316 0
-309 302 316 0
-310 303 261 0
-310 261 317 0
-310 303 317 0
-311 304 262 0
-311 262 318 0
-311 304 318 0
-312 305 263 0
-312 263 319 0
-312 305 319 0
-313 306 264 0
-313 264 320 0
-313 306 320 0
-314 307 265 0
-314 265 321 0
-314 307 321 0
-315 308 266 0
-315 266 322 0
-315 308 322 0
-309 -260 -302 -316 0
-310 -261 -303 -317 0
-311 -262 -304 -318 0
-312 -263 -305 -319 0
-313 -264 -306 -320 0
-314 -265 -307 -321 0
-315 -266 -308 -322 0
316 317 318 319 320 321 322 0
-316 -317 0
-316 -318 0
-316 -319 0
-316 -320 0
-316 -321 0
-316 -322 0
-317 -318 0
-317 -319 0
-317 -320 0
-317 -321 0
-317 -322 0
-318 -319 0
-318 -320 0
-318 -321 0
-318 -322 0
-319 -320 0
-319 -321 0
-319 -322 0
-320 -321 0
-320 -322 0
-321 -322 0
-316 309 267 0
-316 267 323 0
-316 309 323 0
-317 310 268 0
-317 268 324 0
-317 310 324 0
-318 311 269 0
-318 269 325 0
-318 311 325 0
-319 312 270 0
-319 270 326 0
-319 312 326 0
-320 313 271 0
-320 271 327 0
-320 313 327 0
-321 314 272 0
-321 272 328 0
-321 314 328 0
-322 315 273 0
-322 273 329 0
-322 315 329 0
-316 -267 -309 -323 0
-317 -268 -310 -324 0
-318 -269 -311 -325 0
-319 -270 -312 -326 0
-320 -271 -313 -327 0
-321 -272 -314 -328 0
-322 -273 -315 -329 0
323 324 325 326 327 328 329 0
-323 -324 0
-323 -325 0
-323 -326 0
-323 -327 0
-323 -328 0
-323 -329 0
-324 -325 0
-324 -326 0
-324 -327 0
-324 -328 0
-324 -329 0
-325 -326 0
-325 -327 0
-325 -328 0
-325 -329 0
-326 -327 0
-326 -328 0
-326 -329 0
-327 -328 0
-327 -329 0
-328 -329 0
-323 316 274 0
-323 274 330 0
-323 316 330 0
-324 317 275 0
-324 275 331 0
-324 317 331 0
-325 318 276 0
-325 276 332 0
-325 318 332 0
-326 319 277 0
-326 277 333 0
-326 319 333 0
-327 320 278 0
-327 278 334 0
-327 320 334 0
-328 321 279 0
-328 279 335 0
-328 321 335 0
-329 322 280 0
-329 280 336 0
-329 322 336 0
-323 -274 -316 -330 0
-324 -275 -317 -331 0
-325 -276 -318 -332 0
-326 -277 -319 -333 0
-327 -278 -320 -334 0
-328 -279 -321 -335 0
-329 -280 -322 -336 0
330 0
-331 0
-332 0
-333 0
-334 0
-335 0
-336 0
323 281 337 0
-323 -281 0
-323 -337 0
-281 -337 0
337 338 339 340 341 342 343 0
-337 -338 0
-337 -339 0
-337 -340 0
-337 -341 0
-337 -342 0
-337 -343 0
-338 -339 0
-338 -340 0
-338 -341 0
-338 -342 0
-338 -343 0
-339 -340 0
-339 -341 0
-339 -342 0
-339 -343 0
-340 -341 0
-340 -342 0
-340 -343 0
-341 -342 0
-341 -343 0
-342 -343 0
-337 288 0
-337 330 0
-338 289 0
-338 331 0
-339 290 0
-339 332 0
-340 291 0
-340 333 0
-341 292 0
-341 334 0
-342 293 0
-342 335 0
-343 294 0
-343 336 0
114 121 128 135 0
17 66 115 164 213 262 311 0
24 73 122 220 318 0
31 80 129 178 227 276 325 0
38 87 136 185 234 283 0
53 60 67 74 81 88 0
33 82 131 180 229 278 327 0
40 89 138 187 236 285 0
202 209 216 223 230 237 0
20 69 118 167 216 265 314 0
154 168 182 189 0
63 210 259 308 0
21 70 119 168 217 266 315 0
28 77 126 224 322 0
35 84 133 182 231 280 329 0
42 91 140 189 238 287 0